p cnf 138 330
a 1 2 3 4 5 6 7 8 9 10 11 12 13 14 15 16 17 18 19 20 21 22 23 24 25 26 0
e 27 28 29 30 31 32 33 34 35 36 37 38 39 40 41 42 43 44 45 46 47 48 49 50 51 52 53 54 55 56 57 58 59 60 61 62 63 64 65 66 67 68 69 70 71 72 73 74 75 76 77 78 79 80 81 82 83 84 85 86 87 88 89 90 91 92 93 94 95 96 97 98 99 100 101 102 103 104 105 106 107 108 109 110 111 112 113 114 115 116 117 118 119 120 121 122 123 124 125 126 127 128 129 130 131 132 133 134 135 136 137 0
-1 -50 0
12 -50 0
1 50 -12 0
-11 -51 0
50 -51 0
11 51 -50 0
52 -11 0
52 -51 0
11 51 -52 0
-10 -52 -53 0
10 52 -53 0
52 53 -10 0
10 53 -52 0
-2 -54 0
10 -54 0
2 54 -10 0
-14 -55 0
54 -55 0
14 55 -54 0
56 -14 0
56 -55 0
14 55 -56 0
-13 -56 -57 0
13 56 -57 0
56 57 -13 0
13 57 -56 0
-3 -58 0
13 -58 0
3 58 -13 0
-16 -59 0
58 -59 0
16 59 -58 0
60 -16 0
60 -59 0
16 59 -60 0
-15 -60 -61 0
15 60 -61 0
60 61 -15 0
15 61 -60 0
-4 -62 0
15 -62 0
4 62 -15 0
-18 -63 0
62 -63 0
18 63 -62 0
64 -18 0
64 -63 0
18 63 -64 0
-17 -64 -65 0
17 64 -65 0
64 65 -17 0
17 65 -64 0
-5 -66 0
17 -66 0
5 66 -17 0
-20 -67 0
66 -67 0
20 67 -66 0
68 -20 0
68 -67 0
20 67 -68 0
-19 -68 -69 0
19 68 -69 0
68 69 -19 0
19 69 -68 0
-6 -70 0
19 -70 0
6 70 -19 0
-22 -71 0
70 -71 0
22 71 -70 0
72 -22 0
72 -71 0
22 71 -72 0
-21 -72 -73 0
21 72 -73 0
72 73 -21 0
21 73 -72 0
-7 -74 0
21 -74 0
7 74 -21 0
-24 -75 0
74 -75 0
24 75 -74 0
76 -24 0
76 -75 0
24 75 -76 0
-23 -76 -77 0
23 76 -77 0
76 77 -23 0
23 77 -76 0
-8 -78 0
23 -78 0
8 78 -23 0
-26 -79 0
78 -79 0
26 79 -78 0
80 -26 0
80 -79 0
26 79 -80 0
-25 -80 -81 0
25 80 -81 0
80 81 -25 0
25 81 -80 0
-1 -82 0
-2 -82 0
-3 -82 0
-4 -82 0
-5 -82 0
-6 -82 0
-7 -82 0
-8 -82 0
-9 -82 0
-53 -82 0
-57 -82 0
-61 -82 0
-65 -82 0
-69 -82 0
-73 -82 0
-77 -82 0
-81 -82 0
1 2 3 4 5 6 7 8 9 53 57 61 65 69 73 77 81 82 0
-27 -83 0
37 -83 0
27 83 -37 0
-36 -84 0
83 -84 0
36 84 -83 0
85 -36 0
85 -84 0
36 84 -85 0
-35 -85 -86 0
35 85 -86 0
85 86 -35 0
35 86 -85 0
-28 -87 0
35 -87 0
28 87 -35 0
-39 -88 0
87 -88 0
39 88 -87 0
89 -39 0
89 -88 0
39 88 -89 0
-38 -89 -90 0
38 89 -90 0
89 90 -38 0
38 90 -89 0
-29 -91 0
38 -91 0
29 91 -38 0
-41 -92 0
91 -92 0
41 92 -91 0
93 -41 0
93 -92 0
41 92 -93 0
-40 -93 -94 0
40 93 -94 0
93 94 -40 0
40 94 -93 0
-30 -95 0
40 -95 0
30 95 -40 0
-43 -96 0
95 -96 0
43 96 -95 0
97 -43 0
97 -96 0
43 96 -97 0
-42 -97 -98 0
42 97 -98 0
97 98 -42 0
42 98 -97 0
-31 -99 0
42 -99 0
31 99 -42 0
-45 -100 0
99 -100 0
45 100 -99 0
101 -45 0
101 -100 0
45 100 -101 0
-44 -101 -102 0
44 101 -102 0
101 102 -44 0
44 102 -101 0
-32 -103 0
44 -103 0
32 103 -44 0
-47 -104 0
103 -104 0
47 104 -103 0
105 -47 0
105 -104 0
47 104 -105 0
-46 -105 -106 0
46 105 -106 0
105 106 -46 0
46 106 -105 0
-33 -107 0
46 -107 0
33 107 -46 0
-49 -108 0
107 -108 0
49 108 -107 0
109 -49 0
109 -108 0
49 108 -109 0
-48 -109 -110 0
48 109 -110 0
109 110 -48 0
48 110 -109 0
-27 -111 0
-28 -111 0
-29 -111 0
-30 -111 0
-31 -111 0
-32 -111 0
-33 -111 0
-34 -111 0
-86 -111 0
-90 -111 0
-94 -111 0
-98 -111 0
-102 -111 0
-106 -111 0
-110 -111 0
27 28 29 30 31 32 33 34 86 90 94 98 102 106 110 111 0
-9 -27 -112 0
9 27 -112 0
27 112 -9 0
9 112 -27 0
-25 -37 -113 0
25 37 -113 0
37 113 -25 0
25 113 -37 0
-112 -114 0
-113 -114 0
112 113 114 0
-9 -28 -115 0
9 28 -115 0
28 115 -9 0
9 115 -28 0
-25 -35 -116 0
25 35 -116 0
35 116 -25 0
25 116 -35 0
-115 -117 0
-116 -117 0
115 116 117 0
-9 -29 -118 0
9 29 -118 0
29 118 -9 0
9 118 -29 0
-25 -38 -119 0
25 38 -119 0
38 119 -25 0
25 119 -38 0
-118 -120 0
-119 -120 0
118 119 120 0
-9 -30 -121 0
9 30 -121 0
30 121 -9 0
9 121 -30 0
-25 -40 -122 0
25 40 -122 0
40 122 -25 0
25 122 -40 0
-121 -123 0
-122 -123 0
121 122 123 0
-9 -31 -124 0
9 31 -124 0
31 124 -9 0
9 124 -31 0
-25 -42 -125 0
25 42 -125 0
42 125 -25 0
25 125 -42 0
-124 -126 0
-125 -126 0
124 125 126 0
-9 -32 -127 0
9 32 -127 0
32 127 -9 0
9 127 -32 0
-25 -44 -128 0
25 44 -128 0
44 128 -25 0
25 128 -44 0
-127 -129 0
-128 -129 0
127 128 129 0
-9 -33 -130 0
9 33 -130 0
33 130 -9 0
9 130 -33 0
-25 -46 -131 0
25 46 -131 0
46 131 -25 0
25 131 -46 0
-130 -132 0
-131 -132 0
130 131 132 0
-9 -34 -133 0
9 34 -133 0
34 133 -9 0
9 133 -34 0
-25 -48 -134 0
25 48 -134 0
48 134 -25 0
25 134 -48 0
-133 -135 0
-134 -135 0
133 134 135 0
136 -114 0
136 -117 0
136 -120 0
136 -123 0
136 -126 0
136 -129 0
136 -132 0
136 -135 0
114 117 120 123 126 129 132 135 -136 0
111 -137 0
136 -137 0
137 -111 -136 0
137 -82 0
